p edge 1781 1736
e 1 2
e 1 3
e 1 4
e 1 5
e 1 6
e 1 7
e 1 8
e 1 9
e 1 10
e 1 11
e 1 12
e 1 13
e 1 14
e 1 15
e 1 16
e 1 17
e 1 18
e 1 19
e 1 20
e 1 21
e 1 22
e 1 23
e 1 24
e 1 25
e 1 26
e 1 27
e 1 28
e 1 29
e 1 30
e 1 31
e 1 32
e 1 33
e 1 34
e 1 35
e 1 36
e 1 37
e 1 38
e 1 39
e 1 40
e 1 41
e 1 42
e 1 43
e 1 44
e 1 45
e 1 46
e 1 47
e 1 48
e 1 49
e 50 51
e 50 52
e 50 53
e 50 54
e 50 55
e 50 56
e 50 57
e 50 58
e 50 59
e 50 60
e 50 61
e 50 62
e 50 63
e 50 64
e 50 65
e 50 66
e 50 67
e 50 68
e 50 69
e 50 70
e 50 71
e 50 72
e 50 73
e 50 74
e 50 75
e 50 76
e 50 77
e 50 78
e 50 79
e 50 80
e 50 81
e 50 82
e 83 84
e 83 85
e 83 86
e 83 87
e 83 88
e 83 89
e 83 90
e 83 91
e 83 92
e 83 93
e 83 94
e 83 95
e 83 96
e 83 97
e 83 98
e 83 99
e 83 100
e 83 101
e 83 102
e 83 103
e 83 104
e 83 105
e 83 106
e 83 107
e 83 108
e 83 109
e 83 110
e 83 111
e 83 112
e 83 113
e 83 114
e 83 115
e 83 116
e 83 117
e 83 118
e 83 119
e 120 121
e 120 122
e 120 123
e 120 124
e 120 125
e 120 126
e 120 127
e 120 128
e 120 129
e 120 130
e 120 131
e 120 132
e 120 133
e 120 134
e 120 135
e 120 136
e 120 137
e 120 138
e 120 139
e 120 140
e 120 141
e 120 142
e 120 143
e 120 144
e 120 145
e 120 146
e 120 147
e 120 148
e 120 149
e 120 150
e 120 151
e 120 152
e 120 153
e 120 154
e 120 155
e 120 156
e 120 157
e 120 158
e 120 159
e 120 160
e 120 161
e 120 162
e 120 163
e 120 164
e 120 165
e 120 166
e 120 167
e 120 168
e 120 169
e 120 170
e 120 171
e 120 172
e 120 173
e 120 174
e 120 175
e 176 177
e 176 178
e 176 179
e 176 180
e 176 181
e 176 182
e 176 183
e 176 184
e 176 185
e 176 186
e 176 187
e 176 188
e 176 189
e 176 190
e 176 191
e 176 192
e 176 193
e 176 194
e 176 195
e 176 196
e 176 197
e 176 198
e 176 199
e 176 200
e 176 201
e 176 202
e 176 203
e 176 204
e 176 205
e 176 206
e 176 207
e 176 208
e 176 209
e 176 210
e 176 211
e 176 212
e 176 213
e 176 214
e 176 215
e 176 216
e 176 217
e 176 218
e 176 219
e 176 220
e 176 221
e 176 222
e 176 223
e 176 224
e 176 225
e 176 226
e 176 227
e 176 228
e 176 229
e 230 231
e 230 232
e 230 233
e 230 234
e 230 235
e 230 236
e 230 237
e 230 238
e 230 239
e 230 240
e 230 241
e 230 242
e 230 243
e 230 244
e 230 245
e 230 246
e 230 247
e 230 248
e 230 249
e 230 250
e 230 251
e 230 252
e 230 253
e 230 254
e 230 255
e 230 256
e 230 257
e 230 258
e 230 259
e 230 260
e 230 261
e 230 262
e 230 263
e 230 264
e 230 265
e 230 266
e 230 267
e 230 268
e 230 269
e 230 270
e 230 271
e 230 272
e 230 273
e 230 274
e 230 275
e 230 276
e 230 277
e 230 278
e 230 279
e 230 280
e 230 281
e 230 282
e 230 283
e 230 284
e 230 285
e 230 286
e 230 287
e 288 289
e 288 290
e 288 291
e 288 292
e 288 293
e 288 294
e 288 295
e 288 296
e 288 297
e 288 298
e 288 299
e 288 300
e 288 301
e 288 302
e 288 303
e 288 304
e 288 305
e 288 306
e 288 307
e 288 308
e 288 309
e 288 310
e 288 311
e 288 312
e 288 313
e 288 314
e 288 315
e 288 316
e 288 317
e 288 318
e 288 319
e 288 320
e 288 321
e 288 322
e 288 323
e 288 324
e 288 325
e 288 326
e 288 327
e 288 328
e 288 329
e 288 330
e 288 331
e 288 332
e 288 333
e 288 334
e 288 335
e 288 336
e 288 337
e 288 338
e 288 339
e 340 341
e 340 342
e 340 343
e 340 344
e 340 345
e 340 346
e 340 347
e 340 348
e 340 349
e 340 350
e 340 351
e 340 352
e 340 353
e 340 354
e 340 355
e 340 356
e 340 357
e 340 358
e 340 359
e 340 360
e 361 362
e 361 363
e 361 364
e 361 365
e 361 366
e 361 367
e 361 368
e 361 369
e 361 370
e 361 371
e 361 372
e 373 374
e 373 375
e 373 376
e 373 377
e 373 378
e 373 379
e 373 380
e 373 381
e 373 382
e 373 383
e 373 384
e 373 385
e 373 386
e 373 387
e 373 388
e 389 390
e 389 391
e 389 392
e 389 393
e 389 394
e 389 395
e 389 396
e 389 397
e 389 398
e 389 399
e 389 400
e 389 401
e 389 402
e 389 403
e 389 404
e 389 405
e 389 406
e 389 407
e 389 408
e 389 409
e 389 410
e 389 411
e 389 412
e 389 413
e 389 414
e 389 415
e 389 416
e 389 417
e 389 418
e 389 419
e 420 421
e 420 422
e 420 423
e 420 424
e 420 425
e 420 426
e 420 427
e 420 428
e 420 429
e 420 430
e 420 431
e 420 432
e 420 433
e 420 434
e 420 435
e 420 436
e 420 437
e 420 438
e 420 439
e 420 440
e 420 441
e 420 442
e 420 443
e 420 444
e 420 445
e 420 446
e 420 447
e 420 448
e 420 449
e 420 450
e 420 451
e 420 452
e 420 453
e 420 454
e 420 455
e 420 456
e 420 457
e 420 458
e 459 460
e 459 461
e 459 462
e 459 463
e 459 464
e 459 465
e 459 466
e 459 467
e 459 468
e 459 469
e 459 470
e 459 471
e 459 472
e 459 473
e 459 474
e 459 475
e 459 476
e 459 477
e 459 478
e 459 479
e 459 480
e 459 481
e 459 482
e 459 483
e 459 484
e 459 485
e 459 486
e 459 487
e 459 488
e 459 489
e 459 490
e 459 491
e 459 492
e 459 493
e 459 494
e 459 495
e 459 496
e 497 498
e 497 499
e 497 500
e 497 501
e 497 502
e 497 503
e 497 504
e 497 505
e 497 506
e 497 507
e 497 508
e 497 509
e 510 511
e 510 512
e 510 513
e 510 514
e 510 515
e 510 516
e 510 517
e 510 518
e 510 519
e 510 520
e 510 521
e 510 522
e 510 523
e 510 524
e 510 525
e 510 526
e 510 527
e 510 528
e 510 529
e 510 530
e 510 531
e 510 532
e 510 533
e 510 534
e 510 535
e 510 536
e 510 537
e 510 538
e 510 539
e 510 540
e 510 541
e 510 542
e 510 543
e 510 544
e 545 546
e 545 547
e 545 548
e 545 549
e 545 550
e 545 551
e 545 552
e 545 553
e 545 554
e 545 555
e 545 556
e 545 557
e 545 558
e 545 559
e 545 560
e 545 561
e 545 562
e 545 563
e 545 564
e 545 565
e 545 566
e 545 567
e 545 568
e 545 569
e 545 570
e 545 571
e 572 573
e 572 574
e 572 575
e 572 576
e 572 577
e 572 578
e 572 579
e 572 580
e 572 581
e 572 582
e 572 583
e 572 584
e 572 585
e 572 586
e 572 587
e 572 588
e 572 589
e 572 590
e 572 591
e 572 592
e 572 593
e 572 594
e 572 595
e 572 596
e 572 597
e 572 598
e 572 599
e 572 600
e 572 601
e 572 602
e 572 603
e 604 605
e 604 606
e 604 607
e 604 608
e 604 609
e 604 610
e 604 611
e 604 612
e 604 613
e 604 614
e 604 615
e 604 616
e 604 617
e 604 618
e 604 619
e 604 620
e 604 621
e 604 622
e 604 623
e 604 624
e 604 625
e 604 626
e 604 627
e 604 628
e 604 629
e 604 630
e 604 631
e 604 632
e 604 633
e 604 634
e 604 635
e 604 636
e 604 637
e 604 638
e 604 639
e 604 640
e 604 641
e 604 642
e 604 643
e 604 644
e 604 645
e 604 646
e 604 647
e 604 648
e 604 649
e 604 650
e 604 651
e 604 652
e 604 653
e 604 654
e 604 655
e 656 657
e 656 658
e 656 659
e 656 660
e 656 661
e 656 662
e 656 663
e 656 664
e 656 665
e 656 666
e 656 667
e 656 668
e 656 669
e 656 670
e 656 671
e 656 672
e 656 673
e 656 674
e 656 675
e 656 676
e 656 677
e 656 678
e 656 679
e 656 680
e 656 681
e 656 682
e 656 683
e 656 684
e 656 685
e 656 686
e 656 687
e 656 688
e 656 689
e 656 690
e 656 691
e 656 692
e 656 693
e 656 694
e 656 695
e 656 696
e 656 697
e 656 698
e 656 699
e 656 700
e 656 701
e 702 703
e 702 704
e 702 705
e 702 706
e 702 707
e 702 708
e 702 709
e 702 710
e 702 711
e 702 712
e 702 713
e 702 714
e 702 715
e 702 716
e 702 717
e 702 718
e 702 719
e 702 720
e 702 721
e 702 722
e 702 723
e 702 724
e 702 725
e 702 726
e 702 727
e 702 728
e 702 729
e 702 730
e 702 731
e 702 732
e 702 733
e 702 734
e 702 735
e 702 736
e 702 737
e 702 738
e 702 739
e 702 740
e 702 741
e 702 742
e 702 743
e 702 744
e 702 745
e 702 746
e 702 747
e 702 748
e 702 749
e 750 751
e 750 752
e 750 753
e 750 754
e 750 755
e 750 756
e 750 757
e 750 758
e 750 759
e 750 760
e 750 761
e 750 762
e 750 763
e 750 764
e 750 765
e 750 766
e 750 767
e 750 768
e 750 769
e 750 770
e 750 771
e 750 772
e 750 773
e 750 774
e 750 775
e 750 776
e 750 777
e 750 778
e 750 779
e 780 781
e 780 782
e 780 783
e 780 784
e 780 785
e 780 786
e 780 787
e 780 788
e 780 789
e 780 790
e 780 791
e 780 792
e 780 793
e 780 794
e 780 795
e 796 797
e 796 798
e 796 799
e 796 800
e 796 801
e 796 802
e 796 803
e 796 804
e 796 805
e 796 806
e 796 807
e 796 808
e 796 809
e 796 810
e 796 811
e 796 812
e 796 813
e 796 814
e 796 815
e 796 816
e 796 817
e 796 818
e 796 819
e 796 820
e 796 821
e 796 822
e 796 823
e 796 824
e 796 825
e 796 826
e 796 827
e 796 828
e 796 829
e 796 830
e 796 831
e 796 832
e 796 833
e 796 834
e 796 835
e 796 836
e 796 837
e 796 838
e 796 839
e 796 840
e 796 841
e 796 842
e 796 843
e 796 844
e 796 845
e 796 846
e 796 847
e 796 848
e 796 849
e 796 850
e 796 851
e 852 853
e 852 854
e 852 855
e 852 856
e 852 857
e 852 858
e 852 859
e 852 860
e 852 861
e 852 862
e 852 863
e 852 864
e 852 865
e 852 866
e 852 867
e 852 868
e 852 869
e 852 870
e 852 871
e 852 872
e 852 873
e 852 874
e 852 875
e 852 876
e 852 877
e 852 878
e 852 879
e 852 880
e 852 881
e 852 882
e 852 883
e 852 884
e 852 885
e 852 886
e 852 887
e 852 888
e 852 889
e 852 890
e 852 891
e 852 892
e 852 893
e 852 894
e 852 895
e 852 896
e 852 897
e 852 898
e 852 899
e 852 900
e 852 901
e 852 902
e 852 903
e 852 904
e 852 905
e 852 906
e 852 907
e 852 908
e 852 909
e 852 910
e 911 912
e 911 913
e 911 914
e 911 915
e 911 916
e 911 917
e 911 918
e 911 919
e 911 920
e 911 921
e 911 922
e 911 923
e 911 924
e 911 925
e 911 926
e 911 927
e 911 928
e 911 929
e 911 930
e 911 931
e 911 932
e 911 933
e 911 934
e 911 935
e 911 936
e 911 937
e 911 938
e 911 939
e 911 940
e 911 941
e 911 942
e 911 943
e 911 944
e 911 945
e 911 946
e 911 947
e 911 948
e 911 949
e 911 950
e 911 951
e 911 952
e 911 953
e 911 954
e 911 955
e 911 956
e 911 957
e 958 959
e 958 960
e 958 961
e 958 962
e 958 963
e 958 964
e 958 965
e 958 966
e 958 967
e 958 968
e 958 969
e 958 970
e 958 971
e 958 972
e 958 973
e 958 974
e 958 975
e 958 976
e 958 977
e 958 978
e 958 979
e 958 980
e 958 981
e 958 982
e 958 983
e 958 984
e 958 985
e 958 986
e 958 987
e 958 988
e 958 989
e 958 990
e 958 991
e 958 992
e 958 993
e 958 994
e 958 995
e 958 996
e 958 997
e 958 998
e 958 999
e 958 1000
e 958 1001
e 958 1002
e 958 1003
e 958 1004
e 958 1005
e 958 1006
e 958 1007
e 958 1008
e 958 1009
e 958 1010
e 958 1011
e 958 1012
e 1013 1014
e 1013 1015
e 1013 1016
e 1013 1017
e 1013 1018
e 1013 1019
e 1013 1020
e 1013 1021
e 1013 1022
e 1013 1023
e 1013 1024
e 1013 1025
e 1013 1026
e 1013 1027
e 1013 1028
e 1013 1029
e 1013 1030
e 1013 1031
e 1013 1032
e 1013 1033
e 1013 1034
e 1013 1035
e 1013 1036
e 1013 1037
e 1038 1039
e 1038 1040
e 1038 1041
e 1038 1042
e 1038 1043
e 1038 1044
e 1038 1045
e 1038 1046
e 1038 1047
e 1038 1048
e 1038 1049
e 1038 1050
e 1038 1051
e 1038 1052
e 1038 1053
e 1038 1054
e 1038 1055
e 1038 1056
e 1038 1057
e 1038 1058
e 1038 1059
e 1038 1060
e 1038 1061
e 1038 1062
e 1038 1063
e 1038 1064
e 1038 1065
e 1038 1066
e 1038 1067
e 1038 1068
e 1038 1069
e 1038 1070
e 1038 1071
e 1038 1072
e 1038 1073
e 1038 1074
e 1038 1075
e 1038 1076
e 1038 1077
e 1038 1078
e 1038 1079
e 1038 1080
e 1081 1082
e 1081 1083
e 1081 1084
e 1081 1085
e 1081 1086
e 1081 1087
e 1081 1088
e 1081 1089
e 1081 1090
e 1081 1091
e 1081 1092
e 1081 1093
e 1081 1094
e 1081 1095
e 1081 1096
e 1081 1097
e 1081 1098
e 1081 1099
e 1081 1100
e 1081 1101
e 1081 1102
e 1081 1103
e 1081 1104
e 1081 1105
e 1081 1106
e 1081 1107
e 1081 1108
e 1081 1109
e 1081 1110
e 1081 1111
e 1081 1112
e 1081 1113
e 1081 1114
e 1081 1115
e 1081 1116
e 1081 1117
e 1081 1118
e 1081 1119
e 1081 1120
e 1081 1121
e 1081 1122
e 1081 1123
e 1081 1124
e 1081 1125
e 1081 1126
e 1081 1127
e 1081 1128
e 1081 1129
e 1081 1130
e 1081 1131
e 1081 1132
e 1081 1133
e 1134 1135
e 1134 1136
e 1134 1137
e 1134 1138
e 1134 1139
e 1134 1140
e 1134 1141
e 1134 1142
e 1134 1143
e 1134 1144
e 1134 1145
e 1134 1146
e 1134 1147
e 1134 1148
e 1134 1149
e 1134 1150
e 1134 1151
e 1134 1152
e 1134 1153
e 1134 1154
e 1134 1155
e 1134 1156
e 1134 1157
e 1134 1158
e 1134 1159
e 1134 1160
e 1134 1161
e 1134 1162
e 1134 1163
e 1134 1164
e 1134 1165
e 1134 1166
e 1134 1167
e 1134 1168
e 1134 1169
e 1134 1170
e 1134 1171
e 1134 1172
e 1134 1173
e 1134 1174
e 1134 1175
e 1134 1176
e 1134 1177
e 1134 1178
e 1134 1179
e 1134 1180
e 1134 1181
e 1134 1182
e 1134 1183
e 1134 1184
e 1134 1185
e 1134 1186
e 1134 1187
e 1134 1188
e 1134 1189
e 1134 1190
e 1134 1191
e 1134 1192
e 1193 1194
e 1193 1195
e 1193 1196
e 1193 1197
e 1193 1198
e 1193 1199
e 1193 1200
e 1193 1201
e 1193 1202
e 1193 1203
e 1193 1204
e 1193 1205
e 1193 1206
e 1193 1207
e 1193 1208
e 1193 1209
e 1193 1210
e 1193 1211
e 1193 1212
e 1193 1213
e 1193 1214
e 1193 1215
e 1216 1217
e 1216 1218
e 1216 1219
e 1216 1220
e 1216 1221
e 1216 1222
e 1216 1223
e 1216 1224
e 1216 1225
e 1216 1226
e 1216 1227
e 1216 1228
e 1216 1229
e 1216 1230
e 1216 1231
e 1216 1232
e 1216 1233
e 1216 1234
e 1216 1235
e 1216 1236
e 1216 1237
e 1216 1238
e 1216 1239
e 1216 1240
e 1216 1241
e 1216 1242
e 1216 1243
e 1216 1244
e 1216 1245
e 1216 1246
e 1216 1247
e 1216 1248
e 1216 1249
e 1216 1250
e 1216 1251
e 1216 1252
e 1216 1253
e 1216 1254
e 1216 1255
e 1216 1256
e 1216 1257
e 1216 1258
e 1216 1259
e 1216 1260
e 1216 1261
e 1216 1262
e 1263 1264
e 1263 1265
e 1263 1266
e 1263 1267
e 1263 1268
e 1263 1269
e 1263 1270
e 1263 1271
e 1263 1272
e 1263 1273
e 1263 1274
e 1263 1275
e 1263 1276
e 1263 1277
e 1263 1278
e 1263 1279
e 1263 1280
e 1263 1281
e 1263 1282
e 1263 1283
e 1263 1284
e 1263 1285
e 1263 1286
e 1263 1287
e 1263 1288
e 1263 1289
e 1263 1290
e 1263 1291
e 1263 1292
e 1263 1293
e 1294 1295
e 1294 1296
e 1294 1297
e 1294 1298
e 1294 1299
e 1294 1300
e 1294 1301
e 1294 1302
e 1294 1303
e 1294 1304
e 1294 1305
e 1294 1306
e 1294 1307
e 1294 1308
e 1294 1309
e 1294 1310
e 1294 1311
e 1294 1312
e 1294 1313
e 1294 1314
e 1294 1315
e 1294 1316
e 1294 1317
e 1294 1318
e 1294 1319
e 1294 1320
e 1294 1321
e 1294 1322
e 1294 1323
e 1294 1324
e 1294 1325
e 1294 1326
e 1294 1327
e 1294 1328
e 1294 1329
e 1294 1330
e 1331 1332
e 1331 1333
e 1331 1334
e 1331 1335
e 1331 1336
e 1331 1337
e 1331 1338
e 1331 1339
e 1331 1340
e 1331 1341
e 1331 1342
e 1331 1343
e 1331 1344
e 1331 1345
e 1331 1346
e 1331 1347
e 1331 1348
e 1331 1349
e 1331 1350
e 1331 1351
e 1331 1352
e 1331 1353
e 1331 1354
e 1331 1355
e 1331 1356
e 1331 1357
e 1331 1358
e 1331 1359
e 1331 1360
e 1331 1361
e 1331 1362
e 1331 1363
e 1331 1364
e 1331 1365
e 1331 1366
e 1331 1367
e 1331 1368
e 1331 1369
e 1331 1370
e 1331 1371
e 1331 1372
e 1373 1374
e 1373 1375
e 1373 1376
e 1373 1377
e 1373 1378
e 1373 1379
e 1373 1380
e 1373 1381
e 1373 1382
e 1373 1383
e 1373 1384
e 1373 1385
e 1373 1386
e 1373 1387
e 1373 1388
e 1373 1389
e 1373 1390
e 1373 1391
e 1373 1392
e 1373 1393
e 1394 1395
e 1394 1396
e 1394 1397
e 1394 1398
e 1394 1399
e 1394 1400
e 1394 1401
e 1394 1402
e 1394 1403
e 1394 1404
e 1394 1405
e 1394 1406
e 1394 1407
e 1394 1408
e 1394 1409
e 1394 1410
e 1394 1411
e 1394 1412
e 1413 1414
e 1413 1415
e 1413 1416
e 1413 1417
e 1413 1418
e 1413 1419
e 1413 1420
e 1413 1421
e 1413 1422
e 1413 1423
e 1413 1424
e 1413 1425
e 1413 1426
e 1413 1427
e 1413 1428
e 1413 1429
e 1413 1430
e 1413 1431
e 1413 1432
e 1413 1433
e 1413 1434
e 1413 1435
e 1413 1436
e 1413 1437
e 1413 1438
e 1413 1439
e 1413 1440
e 1413 1441
e 1413 1442
e 1413 1443
e 1413 1444
e 1413 1445
e 1413 1446
e 1413 1447
e 1448 1449
e 1448 1450
e 1448 1451
e 1448 1452
e 1448 1453
e 1448 1454
e 1448 1455
e 1448 1456
e 1448 1457
e 1448 1458
e 1448 1459
e 1448 1460
e 1448 1461
e 1448 1462
e 1448 1463
e 1448 1464
e 1448 1465
e 1448 1466
e 1448 1467
e 1448 1468
e 1448 1469
e 1448 1470
e 1448 1471
e 1448 1472
e 1448 1473
e 1448 1474
e 1448 1475
e 1448 1476
e 1448 1477
e 1448 1478
e 1448 1479
e 1448 1480
e 1448 1481
e 1448 1482
e 1448 1483
e 1448 1484
e 1448 1485
e 1448 1486
e 1448 1487
e 1448 1488
e 1448 1489
e 1448 1490
e 1448 1491
e 1448 1492
e 1448 1493
e 1448 1494
e 1448 1495
e 1448 1496
e 1448 1497
e 1448 1498
e 1448 1499
e 1448 1500
e 1448 1501
e 1448 1502
e 1448 1503
e 1504 1505
e 1504 1506
e 1504 1507
e 1504 1508
e 1504 1509
e 1504 1510
e 1504 1511
e 1504 1512
e 1504 1513
e 1504 1514
e 1504 1515
e 1504 1516
e 1504 1517
e 1504 1518
e 1504 1519
e 1504 1520
e 1504 1521
e 1504 1522
e 1504 1523
e 1504 1524
e 1504 1525
e 1504 1526
e 1504 1527
e 1504 1528
e 1504 1529
e 1504 1530
e 1504 1531
e 1504 1532
e 1504 1533
e 1504 1534
e 1504 1535
e 1504 1536
e 1504 1537
e 1504 1538
e 1504 1539
e 1504 1540
e 1504 1541
e 1504 1542
e 1504 1543
e 1504 1544
e 1504 1545
e 1546 1547
e 1546 1548
e 1546 1549
e 1546 1550
e 1546 1551
e 1546 1552
e 1546 1553
e 1546 1554
e 1546 1555
e 1546 1556
e 1546 1557
e 1546 1558
e 1546 1559
e 1546 1560
e 1546 1561
e 1546 1562
e 1546 1563
e 1546 1564
e 1546 1565
e 1546 1566
e 1546 1567
e 1546 1568
e 1546 1569
e 1546 1570
e 1546 1571
e 1546 1572
e 1546 1573
e 1546 1574
e 1546 1575
e 1546 1576
e 1546 1577
e 1546 1578
e 1546 1579
e 1546 1580
e 1546 1581
e 1546 1582
e 1546 1583
e 1546 1584
e 1546 1585
e 1546 1586
e 1546 1587
e 1588 1589
e 1588 1590
e 1588 1591
e 1588 1592
e 1588 1593
e 1588 1594
e 1588 1595
e 1588 1596
e 1588 1597
e 1588 1598
e 1588 1599
e 1588 1600
e 1588 1601
e 1588 1602
e 1588 1603
e 1588 1604
e 1588 1605
e 1588 1606
e 1588 1607
e 1588 1608
e 1588 1609
e 1588 1610
e 1588 1611
e 1588 1612
e 1588 1613
e 1588 1614
e 1588 1615
e 1588 1616
e 1588 1617
e 1588 1618
e 1588 1619
e 1588 1620
e 1588 1621
e 1588 1622
e 1588 1623
e 1588 1624
e 1588 1625
e 1588 1626
e 1588 1627
e 1588 1628
e 1588 1629
e 1588 1630
e 1588 1631
e 1588 1632
e 1588 1633
e 1588 1634
e 1588 1635
e 1588 1636
e 1588 1637
e 1588 1638
e 1639 1640
e 1639 1641
e 1639 1642
e 1639 1643
e 1639 1644
e 1639 1645
e 1639 1646
e 1639 1647
e 1639 1648
e 1639 1649
e 1639 1650
e 1639 1651
e 1639 1652
e 1639 1653
e 1639 1654
e 1639 1655
e 1639 1656
e 1639 1657
e 1639 1658
e 1639 1659
e 1639 1660
e 1639 1661
e 1639 1662
e 1639 1663
e 1639 1664
e 1639 1665
e 1639 1666
e 1639 1667
e 1639 1668
e 1639 1669
e 1639 1670
e 1639 1671
e 1639 1672
e 1639 1673
e 1639 1674
e 1639 1675
e 1639 1676
e 1639 1677
e 1639 1678
e 1639 1679
e 1639 1680
e 1639 1681
e 1639 1682
e 1639 1683
e 1639 1684
e 1639 1685
e 1639 1686
e 1639 1687
e 1639 1688
e 1639 1689
e 1639 1690
e 1639 1691
e 1639 1692
e 1639 1693
e 1639 1694
e 1639 1695
e 1639 1696
e 1639 1697
e 1698 1699
e 1698 1700
e 1698 1701
e 1698 1702
e 1698 1703
e 1698 1704
e 1698 1705
e 1698 1706
e 1698 1707
e 1698 1708
e 1698 1709
e 1698 1710
e 1698 1711
e 1698 1712
e 1698 1713
e 1698 1714
e 1698 1715
e 1698 1716
e 1698 1717
e 1698 1718
e 1698 1719
e 1698 1720
e 1698 1721
e 1698 1722
e 1698 1723
e 1698 1724
e 1698 1725
e 1698 1726
e 1698 1727
e 1698 1728
e 1698 1729
e 1698 1730
e 1731 1732
e 1731 1733
e 1731 1734
e 1731 1735
e 1731 1736
e 1731 1737
e 1731 1738
e 1731 1739
e 1731 1740
e 1731 1741
e 1731 1742
e 1731 1743
e 1731 1744
e 1731 1745
e 1731 1746
e 1731 1747
e 1731 1748
e 1731 1749
e 1731 1750
e 1731 1751
e 1731 1752
e 1731 1753
e 1731 1754
e 1731 1755
e 1731 1756
e 1731 1757
e 1731 1758
e 1731 1759
e 1731 1760
e 1731 1761
e 1731 1762
e 1731 1763
e 1731 1764
e 1731 1765
e 1731 1766
e 1731 1767
e 1731 1768
e 1731 1769
e 1731 1770
e 1731 1771
e 1731 1772
e 1731 1773
e 1731 1774
e 1731 1775
e 1731 1776
e 1731 1777
e 1731 1778
e 1731 1779
e 1731 1780
e 1731 1781
